study/exp-portion-fine-grain-4v100/run-logs-backup-12-06/unsupervised_samgraph_cache_graphsage_kKHop2_com-friendster_coll_cache_asymm_link_2_cache_rate_006_batch_size_2000_concurrent_impl_MPS.log
config:eval_tsp="2022-12-08 13:44:31"
config:arch=arch5
config:num_train_worker=3
config:num_sample_worker=1
config:sample_type=khop2
config:root_path=/nvme/graph-learning-copy/samgraph/
config:dataset=com-friendster
config:pipeline=False
config:cache_policy=coll_cache_asymm_link
config:cache_percentage=0.06
config:num_epoch=4
config:batch_size=2000
config:num_hidden=256
config:max_sampling_jobs=1
config:max_copying_jobs=1
config:barriered_epoch=1
config:presample_epoch=2
config:omp_thread_num=13
config:unsupervised=True
config:amp=True
config:rolling=0
config:fanout=[25, 10]
config:lr=0.003
config:dropout=0.5
config:single_gpu=False
config:max_num_step=1000
config:validate_configs=False
config:report_acc=0
config:dataset_path=/nvme/graph-learning-copy/samgraph/com-friendster
config:torch_thread_num=13
config:train_workers=['cuda:0', 'cuda:1', 'cuda:2']
config:sample_workers=['cuda:3']
config:num_fanout=2
config:num_layer=2
config:_run_mode=RunMode.FGNN
config:_log_level=warn
config:_profile_level=3
config:_empty_feat=0
config:_arch=5
config:_sample_type=5
config:_cache_policy=13
test_result:init:input_scale_factor=1.1
0 :  {link #0 : 1}, {link #1 : 2},
1 :  {link #0 : 2}, {link #1 : 0},
2 :  {link #0 : 0}, {link #1 : 1},
0 :  {link #0 : 1}, {link #1 : 2},
1 :  {link #0 : 2}, {link #1 : 0},
2 :  {link #0 : 0}, {link #1 : 1},
0 :  {link #0 : 1}, {link #1 : 2},
1 :  {link #0 : 2}, {link #1 : 0},
2 :  {link #0 : 0}, {link #1 : 1},
Set parameter WLSAccessID
Set parameter WLSSecret
Set parameter LicenseID
Set parameter TimeLimit to value 200
Set parameter MIPGap to value 0.05
Set parameter GomoryPasses to value 0
Set parameter Aggregate to value 0
Set parameter LogFile to value "cppsolver.log"
Set parameter Threads to value 26
Academic license - for non-commercial use only - registered to xiaoniu.sxn@sjtu.edu.cn
Gurobi Optimizer version 9.5.1 build v9.5.1rc2 (linux64)
Thread count: 40 physical cores, 80 logical processors, using up to 26 threads
Academic license - for non-commercial use only - registered to xiaoniu.sxn@sjtu.edu.cn
Optimize a model with 21561 rows, 10264 columns and 64653 nonzeros
Model fingerprint: 0xf5fc6b8f
Variable types: 4 continuous, 10260 integer (10260 binary)
Coefficient statistics:
  Matrix range     [2e-04, 2e+03]
  Objective range  [1e+00, 1e+00]
  Bounds range     [1e+00, 1e+00]
  RHS range        [1e+00, 2e+03]
Found heuristic solution: objective 2.000000e+09
Presolve removed 12314 rows and 0 columns
Presolve time: 0.09s
Presolved: 9247 rows, 10264 columns, 37975 nonzeros
Found heuristic solution: objective 100410.15221
Variable types: 4 continuous, 10260 integer (10260 binary)

Root relaxation: objective 2.868646e+04, 7979 iterations, 0.13 seconds (0.10 work units)

    Nodes    |    Current Node    |     Objective Bounds      |     Work
 Expl Unexpl |  Obj  Depth IntInf | Incumbent    BestBd   Gap | It/Node Time

     0     0 28686.4628    0   13 100410.152 28686.4628  71.4%     -    0s
H    0     0                    28742.046315 28686.4628  0.19%     -    0s

Explored 1 nodes (11282 simplex iterations) in 0.35 seconds (0.25 work units)
Thread count was 26 (of 80 available processors)

Solution count 3: 28742 100410 2e+09 

Optimal solution found (tolerance 5.00e-02)
Best objective 2.874204631452e+04, best bound 2.868646280389e+04, gap 0.1934%
coll_cache:optimal_local_rate=0.234762,0.254395,0.282046,
coll_cache:optimal_remote_rate=0.536268,0.516635,0.488984,
coll_cache:optimal_cpu_rate=0.22897,0.22897,0.22897,
z=28742
test_result:init:feat_nbytes=67182966784
test_result:init:cache_nbytes=4036875264
test_result:init:feat_nbytes=67182966784
test_result:init:cache_nbytes=4036969472
test_result:init:feat_nbytes=67182966784
test_result:init:cache_nbytes=4036802560
[Train  Worker 2/3] Started with PID 1002068(Tesla V100-SXM2-16GB)
[Train  Worker 2] run train for 4 epochs with 1002 steps
[Train  Worker 1/3] Started with PID 1002065(Tesla V100-SXM2-16GB)
[Train  Worker 1] run train for 4 epochs with 1002 steps
[CUDA] cuda0: usage: 11.25 GB
[SAM] cuda0 data alloc        : 0.00 Bytes
[SAM] cuda0 workspace         : 2.74 GB
[SAM] cuda0 workspace reserve : 1.36 GB
[SAM] cuda0 total             : 2.74 GB
[Train  Worker 0/3] Started with PID 1002063(Tesla V100-SXM2-16GB)
[Train  Worker 0] run train for 4 epochs with 1002 steps
Epoch 00000 | Epoch Time 13.5440 | Total Train Time(Profiler) 4.5382 | Copy Time 8.9721
[CUDA] cuda0: usage: 11.25 GB
[SAM] cuda0 data alloc        : 0.00 Bytes
[SAM] cuda0 workspace         : 2.74 GB
[SAM] cuda0 workspace reserve : 1.36 GB
[SAM] cuda0 total             : 2.74 GB
Epoch 00001 | Epoch Time 12.2286 | Total Train Time(Profiler) 3.2435 | Copy Time 8.9522
[CUDA] cuda0: usage: 11.25 GB
[SAM] cuda0 data alloc        : 0.00 Bytes
[SAM] cuda0 workspace         : 2.74 GB
[SAM] cuda0 workspace reserve : 1.36 GB
[SAM] cuda0 total             : 2.74 GB
Epoch 00002 | Epoch Time 12.1090 | Total Train Time(Profiler) 3.1335 | Copy Time 8.9469
[CUDA] cuda0: usage: 11.25 GB
[SAM] cuda0 data alloc        : 0.00 Bytes
[SAM] cuda0 workspace         : 2.74 GB
[SAM] cuda0 workspace reserve : 1.36 GB
[SAM] cuda0 total             : 2.74 GB
Epoch 00003 | Epoch Time 12.1600 | Total Train Time(Profiler) 3.1794 | Copy Time 8.9513
[Train  Worker 1] Avg Epoch Time 12.1659 | Train Total Time(Profiler) 3.1662 | Copy Time 8.9681
[Train  Worker 2] Avg Epoch Time 12.1654 | Train Total Time(Profiler) 3.1731 | Copy Time 8.9605
[Train  Worker 0] Avg Epoch Time 12.1659 | Train Total Time(Profiler) 3.1855 | Copy Time 8.9502
    [Step(average) Profiler Level 1 E3 S1001]
        L1  sample           0.005466 | send           0.001270
        L1  recv             0.000000 | copy           0.000000 | convert time 0.000000 | train  0.000000
        L1  feature nbytes 0.00 Bytes | label nbytes 0.00 Bytes
        L1  id nbytes      0.00 Bytes | graph nbytes 0.00 Bytes
        L1  miss nbytes    0.00 Bytes | remote nbytes 0.00 Bytes
        L1  num nodes         1262258 | num samples     1406504
    [Step(average) Profiler Level 2 E3 S1001]
        L2  shuffle     0.000079 | core sample  0.001985 | id remap        0.003216
        L2  graph copy  0.000000 | id copy      0.000000 | cache feat copy 0.000000
        L2  last layer sample time 0.000301 | size 57473.501663
    [Step(average) Profiler Level 3 E3 S1001]
        L3  khop sample coo  0.001676 | khop sort coo      0.000000 | khop count edge     0.000037 | khop compact edge 0.000219
        L3  walk sample coo  0.000000 | walk topk total    0.000000 | walk topk step1     0.000000 | walk topk step2   0.000000
        L3  walk topk step3  0.000000 | walk topk step4    0.000000 | walk topk step5     0.000000
        L3  walk topk step6  0.000000 | walk topk step7    0.000000
        L3  remap unique     0.000175 | remap populate     0.002735 | remap mapnode       0.000000 | remap mapedge     0.000494
        L3  cache get_index  0.000000 | cache copy_index   0.000000 | cache extract_miss  0.000000
        L3  cache copy_miss  0.000000 | cache combine_miss 0.000000 | cache combine cache 0.000000 | cache combine remote 0.000000
        L3  label extract  0.000000
    [Init Profiler Level 1]
        L1  init     7.4474 | sampler init    60.8007 | trainer init 0.0000
    [Init Profiler Level 2]
        L2  load ds        10.6529 | init queue          26.7921
        L2  presample      29.0075 | build interal ds     1.7928
        L2  build cache     0.0000
    [Init Profiler Level 3]
        L3  load dataset: mmap     7.4445 | copy         3.2084
        L3  dist queue: alloc      0.0007 | pin         26.7914 | push     0.0000
        L3  presample: init        0.2563
        L3  presample: sample     11.2808 | copy         0.7985
        L3  presample: count      15.8029 | sort         0.3351
        L3  presample: reset       0.0026 | get rank     0.0275
        L3  internal: cuda ctx     1.5174 | cuda stream     0.2680
[Sample Worker 0/1] Started with PID 1002061(Tesla V100-SXM2-16GB)
[Sample Worker 0] run sample for 4 epochs with 1002 steps
[Sample Worker 0] Avg Sample Total Time 6.7611 | Sampler Total Time(Profiler) 6.7492
test_result:sample_time=5.4771
test_result:get_cache_miss_index_time=0.0000
test_result:enqueue_samples_time=1.2721
test_result:epoch_time:sample_total=6.7611
[CUDA] cuda0: usage: 11.25 GB
[SAM] cuda0 data alloc        : 0.00 Bytes
[SAM] cuda0 workspace         : 2.74 GB
[SAM] cuda0 workspace reserve : 1.36 GB
[SAM] cuda0 total             : 2.74 GB
    [Step(average) Profiler Level 1 E3 S1001]
        L1  sample           0.000000 | send           0.000000
        L1  recv             0.001425 | copy           0.026825 | convert time 0.000481 | train  0.009025
        L1  feature nbytes    1.20 GB | label nbytes   15.62 KB
        L1  id nbytes      0.00 Bytes | graph nbytes 0.00 Bytes
        L1  miss nbytes     286.50 MB | remote nbytes  630.71 MB
        L1  num nodes               0 | num samples           0
    [Step(average) Profiler Level 2 E3 S1001]
        L2  shuffle     0.000000 | core sample  0.000000 | id remap        0.000000
        L2  graph copy  0.000004 | id copy      0.000000 | cache feat copy 0.025397
        L2  last layer sample time 0.000000 | size 0.000000
    [Step(average) Profiler Level 3 E3 S1001]
        L3  khop sample coo  0.000000 | khop sort coo      0.000000 | khop count edge     0.000000 | khop compact edge 0.000000
        L3  walk sample coo  0.000000 | walk topk total    0.000000 | walk topk step1     0.000000 | walk topk step2   0.000000
        L3  walk topk step3  0.000000 | walk topk step4    0.000000 | walk topk step5     0.000000
        L3  walk topk step6  0.000000 | walk topk step7    0.000000
        L3  remap unique     0.000000 | remap populate     0.000000 | remap mapnode       0.000000 | remap mapedge     0.000000
        L3  cache get_index  0.000794 | cache copy_index   0.000000 | cache extract_miss  0.000000
        L3  cache copy_miss  0.000000 | cache combine_miss 0.024574 | cache combine cache 0.001024 | cache combine remote 0.008454
        L3  label extract  0.000017
    [Step(max) Profiler Level 1 E3 S1001]
        L1  sample           0.000000 | send           0.000000
        L1  recv             0.000000 | copy           0.000000 | convert time 0.000000 | train  0.000000
        L1  feature nbytes 0.00 Bytes | label nbytes 0.00 Bytes
        L1  id nbytes      0.00 Bytes | graph nbytes   10.88 MB
        L1  miss nbytes    0.00 Bytes | remote nbytes 0.00 Bytes
        L1  num nodes               0 | num samples           0
    [Step(max) Profiler Level 2 E3 S1001]
        L2  shuffle     0.000000 | core sample  0.000000 | id remap        0.000000
        L2  graph copy  0.000000 | id copy      0.000000 | cache feat copy 0.000000
        L2  last layer sample time 0.000000 | size 0.000000
    [Step(max) Profiler Level 3 E3 S1001]
        L3  khop sample coo  0.000000 | khop sort coo      0.000000 | khop count edge     0.000000 | khop compact edge 0.000000
        L3  walk sample coo  0.000000 | walk topk total    0.000000 | walk topk step1     0.000000 | walk topk step2   0.000000
        L3  walk topk step3  0.000000 | walk topk step4    0.000000 | walk topk step5     0.000000
        L3  walk topk step6  0.000000 | walk topk step7    0.000000
        L3  remap unique     0.000000 | remap populate     0.000000 | remap mapnode       0.000000 | remap mapedge     0.000000
        L3  cache get_index  0.000000 | cache copy_index   0.000000 | cache extract_miss  0.000000
        L3  cache copy_miss  0.000000 | cache combine_miss 0.000000 | cache combine cache 0.000000 | cache combine remote 0.000000
        L3  label extract  0.000000
    [Step(min) Profiler Level 1 E3 S1001]
        L1  sample           0.000000 | send           0.000000
        L1  recv             0.000000 | copy           0.000000 | convert time 0.000000 | train  0.000000
        L1  feature nbytes 0.00 Bytes | label nbytes 0.00 Bytes
        L1  id nbytes      0.00 Bytes | graph nbytes   10.63 MB
        L1  miss nbytes    0.00 Bytes | remote nbytes 0.00 Bytes
        L1  num nodes               0 | num samples           0
    [Step(min) Profiler Level 2 E3 S1001]
        L2  shuffle     0.000000 | core sample  0.000000 | id remap        0.000000
        L2  graph copy  0.000000 | id copy      0.000000 | cache feat copy 0.000000
        L2  last layer sample time 0.000000 | size 0.000000
    [Step(min) Profiler Level 3 E3 S1001]
        L3  khop sample coo  0.000000 | khop sort coo      0.000000 | khop count edge     0.000000 | khop compact edge 0.000000
        L3  walk sample coo  0.000000 | walk topk total    0.000000 | walk topk step1     0.000000 | walk topk step2   0.000000
        L3  walk topk step3  0.000000 | walk topk step4    0.000000 | walk topk step5     0.000000
        L3  walk topk step6  0.000000 | walk topk step7    0.000000
        L3  remap unique     0.000000 | remap populate     0.000000 | remap mapnode       0.000000 | remap mapedge     0.000000
        L3  cache get_index  0.000000 | cache copy_index   0.000000 | cache extract_miss  0.000000
        L3  cache copy_miss  0.000000 | cache combine_miss 0.000000 | cache combine cache 0.000000 | cache combine remote 0.000000
        L3  label extract  0.000000
    [Init Profiler Level 1]
        L1  init     7.4474 | sampler init     0.0000 | trainer init 128.9375
    [Init Profiler Level 2]
        L2  load ds         7.4445 | init queue          26.7723
        L2  presample       0.0000 | build interal ds     1.4550
        L2  build cache   100.7101
    [Init Profiler Level 3]
        L3  load dataset: mmap     7.4445 | copy         0.0000
        L3  dist queue: alloc      0.0007 | pin         26.7716 | push     0.0000
        L3  presample: init        0.0000
        L3  presample: sample      0.0000 | copy         0.0000
        L3  presample: count       0.0000 | sort         0.0000
        L3  presample: reset       0.0000 | get rank     0.0000
        L3  internal: cuda ctx     1.4548 | cuda stream     0.0002
|===========================================================================|
|                  PyTorch CUDA memory summary, device ID 0                 |
|---------------------------------------------------------------------------|
|            CUDA OOMs: 0            |        cudaMalloc retries: 0         |
|===========================================================================|
|        Metric         | Cur Usage  | Peak Usage | Tot Alloc  | Tot Freed  |
|---------------------------------------------------------------------------|
| Allocated memory      |   17775 KB |     769 MB |    2018 GB |    2018 GB |
|       from large pool |   12904 KB |     767 MB |    2005 GB |    2005 GB |
|       from small pool |    4871 KB |       6 MB |      12 GB |      12 GB |
|---------------------------------------------------------------------------|
| Active memory         |   17776 KB |     769 MB |    2018 GB |    2018 GB |
|       from large pool |   12904 KB |     767 MB |    2005 GB |    2005 GB |
|       from small pool |    4872 KB |       6 MB |      12 GB |      12 GB |
|---------------------------------------------------------------------------|
| GPU reserved memory   |     780 MB |     780 MB |     780 MB |       0 B  |
|       from large pool |     772 MB |     772 MB |     772 MB |       0 B  |
|       from small pool |       8 MB |       8 MB |       8 MB |       0 B  |
|---------------------------------------------------------------------------|
| Non-releasable memory |   21136 KB |  698975 KB |    1962 GB |    1962 GB |
|       from large pool |   19864 KB |  697285 KB |    1946 GB |    1946 GB |
|       from small pool |    1272 KB |    3800 KB |      15 GB |      15 GB |
|---------------------------------------------------------------------------|
| Allocations           |      39    |      56    |  183068    |  183029    |
|       from large pool |       3    |      14    |   65464    |   65461    |
|       from small pool |      36    |      45    |  117604    |  117568    |
|---------------------------------------------------------------------------|
| Active allocs         |      40    |      56    |  183068    |  183028    |
|       from large pool |       3    |      14    |   65464    |   65461    |
|       from small pool |      37    |      45    |  117604    |  117567    |
|---------------------------------------------------------------------------|
| GPU reserved segments |      10    |      10    |      10    |       0    |
|       from large pool |       6    |       6    |       6    |       0    |
|       from small pool |       4    |       4    |       4    |       0    |
|---------------------------------------------------------------------------|
| Non-releasable allocs |      12    |      24    |   76059    |   76047    |
|       from large pool |       3    |       9    |   42011    |   42008    |
|       from small pool |       9    |      18    |   34048    |   34039    |
|---------------------------------------------------------------------------|
| Oversize allocations  |       0    |       0    |       0    |       0    |
|---------------------------------------------------------------------------|
| Oversize GPU segments |       0    |       0    |       0    |       0    |
|===========================================================================|

test_result:epoch_time:copy_time=8.9502
test_result:convert_time=0.1586
test_result:train_time=3.0268
test_result:epoch_time:train_total=3.1855
test_result:cache_percentage=0.0600
test_result:cache_hit_rate=1.0000
test_result:run_time=77.0816
